136297
82,72,45,25,86,46,77,21,17,90,64,16,20,56,40,6,69,88,13,31,65,52,5,30,29,55,97,8,106,98,42,81,19,99,68,50,9,92,23,12,93,89,80,57,83,34,26,14,74,102,24,76,58,28,27,10,59,66,44,87,1,43,79,91,60,96,78,94,3,101,105,38,104,11,41,67,95,54,71,36,85,48,22,62,2,33,73,39,49,37,70,18,7,84,53,63,32,75,15,4,61,47,103,35,100,51
